c one-vertex extension of ../data/ramsey_5_5_42_free_exoo.txt: can the (r,s)-free coloring of K_42 be extended to K_43?
c red K4 cliques: 1148, blue K4 cliques: 1170
p cnf 42 2318
-1 -2 -3 -15 0
-1 -2 -3 -23 0
-1 -2 -3 -24 0
-1 -2 -3 -32 0
-1 -2 -14 -24 0
-1 -2 -14 -32 0
-1 -2 -15 -22 0
-1 -2 -15 -31 0
-1 -2 -22 -23 0
-1 -2 -22 -24 0
-1 -2 -22 -32 0
-1 -2 -24 -31 0
-1 -2 -31 -32 0
-1 -3 -13 -15 0
-1 -3 -13 -23 0
-1 -3 -13 -26 0
-1 -3 -13 -34 0
-1 -3 -15 -17 0
-1 -3 -15 -28 0
-1 -3 -17 -19 0
-1 -3 -17 -24 0
-1 -3 -17 -30 0
-1 -3 -19 -21 0
-1 -3 -19 -26 0
-1 -3 -19 -32 0
-1 -3 -21 -23 0
-1 -3 -21 -28 0
-1 -3 -21 -34 0
-1 -3 -23 -30 0
-1 -3 -24 -26 0
-1 -3 -24 -34 0
-1 -3 -26 -28 0
-1 -3 -28 -30 0
-1 -3 -30 -32 0
-1 -3 -32 -34 0
-1 -8 -15 -22 0
-1 -8 -15 -28 0
-1 -8 -15 -31 0
-1 -8 -15 -37 0
-1 -8 -21 -22 0
-1 -8 -21 -28 0
-1 -8 -21 -31 0
-1 -8 -21 -37 0
-1 -8 -22 -24 0
-1 -8 -24 -26 0
-1 -8 -24 -31 0
-1 -8 -24 -37 0
-1 -8 -26 -28 0
-1 -8 -28 -30 0
-1 -8 -30 -37 0
-1 -11 -13 -23 0
-1 -11 -13 -31 0
-1 -11 -13 -34 0
-1 -11 -13 -42 0
-1 -11 -21 -23 0
-1 -11 -21 -31 0
-1 -11 -21 -34 0
-1 -11 -21 -42 0
-1 -11 -24 -31 0
-1 -11 -24 -34 0
-1 -11 -24 -42 0
-1 -13 -15 -31 0
-1 -13 -15 -42 0
-1 -13 -26 -42 0
-1 -14 -21 -28 0
-1 -14 -21 -34 0
-1 -14 -21 -37 0
-1 -14 -24 -26 0
-1 -14 -24 -34 0
-1 -14 -24 -37 0
-1 -14 -26 -28 0
-1 -14 -28 -30 0
-1 -14 -30 -32 0
-1 -14 -30 -37 0
-1 -14 -32 -34 0
-1 -15 -17 -31 0
-1 -15 -17 -37 0
-1 -15 -17 -42 0
-1 -15 -22 -42 0
-1 -15 -28 -42 0
-1 -17 -19 -31 0
-1 -17 -19 -37 0
-1 -17 -19 -42 0
-1 -17 -24 -31 0
-1 -17 -24 -37 0
-1 -17 -24 -42 0
-1 -17 -30 -37 0
-1 -17 -30 -42 0
-1 -19 -21 -31 0
-1 -19 -21 -37 0
-1 -19 -21 -42 0
-1 -19 -26 -42 0
-1 -19 -31 -32 0
-1 -19 -32 -42 0
-1 -21 -22 -23 0
-1 -21 -22 -34 0
-1 -21 -22 -42 0
-1 -21 -23 -37 0
-1 -21 -28 -42 0
-1 -22 -24 -34 0
-1 -22 -24 -42 0
-1 -22 -32 -34 0
-1 -22 -32 -42 0
-1 -23 -30 -37 0
-1 -24 -26 -42 0
-1 -26 -28 -42 0
-1 -28 -30 -42 0
-1 -30 -32 -42 0
-2 -3 -4 -16 0
-2 -3 -4 -24 0
-2 -3 -4 -25 0
-2 -3 -4 -33 0
-2 -3 -15 -25 0
-2 -3 -15 -33 0
-2 -3 -16 -23 0
-2 -3 -16 -32 0
-2 -3 -23 -25 0
-2 -3 -23 -33 0
-2 -3 -25 -32 0
-2 -3 -32 -33 0
-2 -4 -14 -16 0
-2 -4 -14 -24 0
-2 -4 -14 -27 0
-2 -4 -14 -35 0
-2 -4 -16 -18 0
-2 -4 -16 -29 0
-2 -4 -18 -20 0
-2 -4 -18 -25 0
-2 -4 -18 -31 0
-2 -4 -20 -22 0
-2 -4 -20 -27 0
-2 -4 -20 -33 0
-2 -4 -22 -24 0
-2 -4 -22 -29 0
-2 -4 -22 -35 0
-2 -4 -24 -31 0
-2 -4 -25 -27 0
-2 -4 -25 -35 0
-2 -4 -27 -29 0
-2 -4 -29 -31 0
-2 -4 -31 -33 0
-2 -4 -33 -35 0
-2 -9 -16 -23 0
-2 -9 -16 -29 0
-2 -9 -16 -32 0
-2 -9 -16 -38 0
-2 -9 -22 -23 0
-2 -9 -22 -29 0
-2 -9 -22 -32 0
-2 -9 -22 -38 0
-2 -9 -23 -25 0
-2 -9 -25 -27 0
-2 -9 -25 -32 0
-2 -9 -25 -38 0
-2 -9 -27 -29 0
-2 -9 -29 -31 0
-2 -9 -31 -32 0
-2 -9 -31 -38 0
-2 -12 -14 -24 0
-2 -12 -14 -32 0
-2 -12 -14 -35 0
-2 -12 -22 -24 0
-2 -12 -22 -32 0
-2 -12 -22 -35 0
-2 -12 -25 -32 0
-2 -12 -25 -35 0
-2 -12 -32 -33 0
-2 -12 -33 -35 0
-2 -14 -16 -32 0
-2 -15 -22 -29 0
-2 -15 -22 -35 0
-2 -15 -22 -38 0
-2 -15 -25 -27 0
-2 -15 -25 -35 0
-2 -15 -25 -38 0
-2 -15 -27 -29 0
-2 -15 -29 -31 0
-2 -15 -31 -33 0
-2 -15 -31 -38 0
-2 -15 -33 -35 0
-2 -16 -18 -32 0
-2 -16 -18 -38 0
-2 -18 -20 -32 0
-2 -18 -20 -38 0
-2 -18 -25 -32 0
-2 -18 -25 -38 0
-2 -18 -31 -32 0
-2 -18 -31 -38 0
-2 -20 -22 -32 0
-2 -20 -22 -38 0
-2 -20 -32 -33 0
-2 -22 -23 -35 0
-2 -22 -24 -38 0
-2 -23 -25 -35 0
-2 -23 -33 -35 0
-2 -24 -31 -38 0
-2 -31 -32 -33 0
-3 -4 -16 -26 0
-3 -4 -16 -34 0
-3 -4 -17 -24 0
-3 -4 -17 -33 0
-3 -4 -24 -26 0
-3 -4 -24 -34 0
-3 -4 -25 -26 0
-3 -4 -26 -33 0
-3 -5 -15 -17 0
-3 -5 -15 -25 0
-3 -5 -15 -28 0
-3 -5 -15 -36 0
-3 -5 -17 -19 0
-3 -5 -17 -30 0
-3 -5 -19 -21 0
-3 -5 -19 -26 0
-3 -5 -19 -32 0
-3 -5 -21 -23 0
-3 -5 -21 -28 0
-3 -5 -21 -34 0
-3 -5 -23 -25 0
-3 -5 -23 -30 0
-3 -5 -23 -36 0
-3 -5 -25 -26 0
-3 -5 -25 -32 0
-3 -5 -26 -28 0
-3 -5 -26 -36 0
-3 -5 -28 -30 0
-3 -5 -30 -32 0
-3 -5 -32 -34 0
-3 -5 -34 -36 0
-3 -10 -17 -24 0
-3 -10 -17 -30 0
-3 -10 -17 -33 0
-3 -10 -17 -39 0
-3 -10 -23 -30 0
-3 -10 -23 -33 0
-3 -10 -23 -39 0
-3 -10 -24 -26 0
-3 -10 -26 -28 0
-3 -10 -26 -33 0
-3 -10 -26 -39 0
-3 -10 -28 -30 0
-3 -10 -30 -32 0
-3 -10 -32 -33 0
-3 -10 -32 -39 0
-3 -13 -15 -25 0
-3 -13 -15 -33 0
-3 -13 -15 -36 0
-3 -13 -23 -25 0
-3 -13 -23 -33 0
-3 -13 -23 -36 0
-3 -13 -25 -26 0
-3 -13 -26 -33 0
-3 -13 -26 -36 0
-3 -13 -34 -36 0
-3 -15 -17 -33 0
-3 -16 -23 -30 0
-3 -16 -23 -36 0
-3 -16 -23 -39 0
-3 -16 -26 -28 0
-3 -16 -26 -36 0
-3 -16 -26 -39 0
-3 -16 -28 -30 0
-3 -16 -30 -32 0
-3 -16 -32 -34 0
-3 -16 -32 -39 0
-3 -16 -34 -36 0
-3 -17 -19 -33 0
-3 -17 -19 -39 0
-3 -19 -21 -33 0
-3 -19 -21 -39 0
-3 -19 -26 -33 0
-3 -19 -26 -39 0
-3 -19 -32 -33 0
-3 -19 -32 -39 0
-3 -21 -23 -33 0
-3 -21 -23 -39 0
-3 -23 -25 -39 0
-3 -24 -26 -36 0
-3 -24 -34 -36 0
-3 -25 -26 -39 0
-3 -25 -32 -39 0
-4 -6 -16 -18 0
-4 -6 -16 -26 0
-4 -6 -16 -29 0
-4 -6 -16 -37 0
-4 -6 -18 -20 0
-4 -6 -18 -31 0
-4 -6 -20 -22 0
-4 -6 -20 -27 0
-4 -6 -20 -33 0
-4 -6 -22 -24 0
-4 -6 -22 -29 0
-4 -6 -22 -35 0
-4 -6 -24 -26 0
-4 -6 -24 -31 0
-4 -6 -24 -37 0
-4 -6 -26 -27 0
-4 -6 -26 -33 0
-4 -6 -27 -29 0
-4 -6 -27 -37 0
-4 -6 -29 -31 0
-4 -6 -31 -33 0
-4 -6 -33 -35 0
-4 -6 -35 -37 0
-4 -11 -18 -25 0
-4 -11 -18 -31 0
-4 -11 -18 -34 0
-4 -11 -18 -40 0
-4 -11 -24 -31 0
-4 -11 -24 -34 0
-4 -11 -24 -40 0
-4 -11 -25 -27 0
-4 -11 -27 -29 0
-4 -11 -27 -34 0
-4 -11 -27 -40 0
-4 -11 -29 -31 0
-4 -11 -31 -33 0
-4 -11 -33 -40 0
-4 -14 -16 -26 0
-4 -14 -16 -34 0
-4 -14 -16 -37 0
-4 -14 -24 -26 0
-4 -14 -24 -34 0
-4 -14 -24 -37 0
-4 -14 -26 -27 0
-4 -14 -27 -34 0
-4 -14 -27 -37 0
-4 -14 -34 -35 0
-4 -14 -35 -37 0
-4 -16 -18 -34 0
-4 -17 -18 -31 0
-4 -17 -18 -40 0
-4 -17 -24 -31 0
-4 -17 -24 -37 0
-4 -17 -24 -40 0
-4 -17 -27 -29 0
-4 -17 -27 -37 0
-4 -17 -27 -40 0
-4 -17 -29 -31 0
-4 -17 -31 -33 0
-4 -17 -33 -35 0
-4 -17 -33 -40 0
-4 -17 -35 -37 0
-4 -18 -20 -34 0
-4 -18 -20 -40 0
-4 -20 -22 -34 0
-4 -20 -22 -40 0
-4 -20 -27 -34 0
-4 -20 -27 -40 0
-4 -20 -33 -40 0
-4 -22 -24 -34 0
-4 -22 -24 -40 0
-4 -22 -34 -35 0
-4 -24 -26 -40 0
-4 -25 -26 -27 0
-4 -25 -27 -37 0
-4 -25 -35 -37 0
-4 -26 -27 -40 0
-4 -26 -33 -40 0
-5 -7 -17 -19 0
-5 -7 -17 -27 0
-5 -7 -17 -30 0
-5 -7 -17 -38 0
-5 -7 -19 -21 0
-5 -7 -19 -32 0
-5 -7 -21 -23 0
-5 -7 -21 -28 0
-5 -7 -21 -34 0
-5 -7 -23 -25 0
-5 -7 -23 -30 0
-5 -7 -23 -36 0
-5 -7 -25 -27 0
-5 -7 -25 -32 0
-5 -7 -25 -38 0
-5 -7 -27 -28 0
-5 -7 -27 -34 0
-5 -7 -28 -30 0
-5 -7 -28 -38 0
-5 -7 -30 -32 0
-5 -7 -32 -34 0
-5 -7 -34 -36 0
-5 -7 -36 -38 0
-5 -12 -19 -26 0
-5 -12 -19 -32 0
-5 -12 -19 -35 0
-5 -12 -19 -41 0
-5 -12 -25 -26 0
-5 -12 -25 -32 0
-5 -12 -25 -35 0
-5 -12 -25 -41 0
-5 -12 -26 -28 0
-5 -12 -28 -30 0
-5 -12 -28 -35 0
-5 -12 -28 -41 0
-5 -12 -30 -32 0
-5 -12 -32 -34 0
-5 -12 -34 -35 0
-5 -12 -34 -41 0
-5 -15 -17 -27 0
-5 -15 -17 -35 0
-5 -15 -17 -38 0
-5 -15 -25 -27 0
-5 -15 -25 -35 0
-5 -15 -25 -38 0
-5 -15 -27 -28 0
-5 -15 -28 -35 0
-5 -15 -28 -38 0
-5 -15 -35 -36 0
-5 -15 -36 -38 0
-5 -17 -18 -19 0
-5 -17 -18 -30 0
-5 -17 -18 -38 0
-5 -17 -19 -35 0
-5 -18 -19 -32 0
-5 -18 -19 -41 0
-5 -18 -25 -32 0
-5 -18 -25 -38 0
-5 -18 -25 -41 0
-5 -18 -28 -30 0
-5 -18 -28 -38 0
-5 -18 -28 -41 0
-5 -18 -30 -32 0
-5 -18 -32 -34 0
-5 -18 -34 -36 0
-5 -18 -34 -41 0
-5 -18 -36 -38 0
-5 -19 -21 -35 0
-5 -19 -21 -41 0
-5 -21 -23 -35 0
-5 -21 -23 -41 0
-5 -21 -28 -35 0
-5 -21 -28 -41 0
-5 -21 -34 -35 0
-5 -21 -34 -41 0
-5 -23 -25 -35 0
-5 -23 -25 -41 0
-5 -23 -35 -36 0
-5 -25 -26 -27 0
-5 -25 -26 -38 0
-5 -25 -27 -41 0
-5 -26 -27 -28 0
-5 -26 -28 -38 0
-5 -26 -36 -38 0
-5 -27 -28 -41 0
-5 -27 -34 -41 0
-5 -34 -35 -36 0
-6 -8 -18 -20 0
-6 -8 -18 -28 0
-6 -8 -18 -31 0
-6 -8 -18 -39 0
-6 -8 -20 -22 0
-6 -8 -20 -33 0
-6 -8 -22 -24 0
-6 -8 -22 -29 0
-6 -8 -22 -35 0
-6 -8 -24 -26 0
-6 -8 -24 -31 0
-6 -8 -24 -37 0
-6 -8 -26 -28 0
-6 -8 -26 -33 0
-6 -8 -26 -39 0
-6 -8 -28 -29 0
-6 -8 -28 -35 0
-6 -8 -29 -31 0
-6 -8 -29 -39 0
-6 -8 -31 -33 0
-6 -8 -33 -35 0
-6 -8 -35 -37 0
-6 -8 -37 -39 0
-6 -13 -20 -27 0
-6 -13 -20 -33 0
-6 -13 -20 -36 0
-6 -13 -20 -42 0
-6 -13 -26 -27 0
-6 -13 -26 -33 0
-6 -13 -26 -36 0
-6 -13 -26 -42 0
-6 -13 -27 -29 0
-6 -13 -29 -31 0
-6 -13 -29 -36 0
-6 -13 -29 -42 0
-6 -13 -31 -33 0
-6 -13 -33 -35 0
-6 -13 -35 -36 0
-6 -13 -35 -42 0
-6 -16 -18 -28 0
-6 -16 -18 -36 0
-6 -16 -18 -39 0
-6 -16 -26 -28 0
-6 -16 -26 -36 0
-6 -16 -26 -39 0
-6 -16 -28 -29 0
-6 -16 -29 -36 0
-6 -16 -29 -39 0
-6 -16 -36 -37 0
-6 -16 -37 -39 0
-6 -18 -19 -20 0
-6 -18 -19 -31 0
-6 -18 -19 -39 0
-6 -18 -20 -36 0
-6 -19 -20 -33 0
-6 -19 -20 -42 0
-6 -19 -26 -33 0
-6 -19 -26 -39 0
-6 -19 -26 -42 0
-6 -19 -29 -31 0
-6 -19 -29 -39 0
-6 -19 -29 -42 0
-6 -19 -31 -33 0
-6 -19 -33 -35 0
-6 -19 -35 -37 0
-6 -19 -35 -42 0
-6 -19 -37 -39 0
-6 -20 -22 -36 0
-6 -20 -22 -42 0
-6 -22 -24 -36 0
-6 -22 -24 -42 0
-6 -22 -29 -36 0
-6 -22 -29 -42 0
-6 -22 -35 -36 0
-6 -22 -35 -42 0
-6 -24 -26 -36 0
-6 -24 -26 -42 0
-6 -24 -36 -37 0
-6 -26 -27 -28 0
-6 -26 -27 -39 0
-6 -26 -28 -42 0
-6 -27 -28 -29 0
-6 -27 -29 -39 0
-6 -27 -37 -39 0
-6 -28 -29 -42 0
-6 -28 -35 -42 0
-6 -35 -36 -37 0
-7 -9 -19 -21 0
-7 -9 -19 -29 0
-7 -9 -19 -32 0
-7 -9 -19 -40 0
-7 -9 -21 -23 0
-7 -9 -21 -34 0
-7 -9 -23 -25 0
-7 -9 -23 -30 0
-7 -9 -23 -36 0
-7 -9 -25 -27 0
-7 -9 -25 -32 0
-7 -9 -25 -38 0
-7 -9 -27 -29 0
-7 -9 -27 -34 0
-7 -9 -27 -40 0
-7 -9 -29 -30 0
-7 -9 -29 -36 0
-7 -9 -30 -32 0
-7 -9 -30 -40 0
-7 -9 -32 -34 0
-7 -9 -34 -36 0
-7 -9 -36 -38 0
-7 -9 -38 -40 0
-7 -14 -21 -28 0
-7 -14 -21 -34 0
-7 -14 -21 -37 0
-7 -14 -27 -28 0
-7 -14 -27 -34 0
-7 -14 -27 -37 0
-7 -14 -28 -30 0
-7 -14 -30 -32 0
-7 -14 -30 -37 0
-7 -14 -32 -34 0
-7 -14 -34 -36 0
-7 -14 -36 -37 0
-7 -17 -19 -29 0
-7 -17 -19 -37 0
-7 -17 -19 -40 0
-7 -17 -27 -29 0
-7 -17 -27 -37 0
-7 -17 -27 -40 0
-7 -17 -29 -30 0
-7 -17 -30 -37 0
-7 -17 -30 -40 0
-7 -17 -37 -38 0
-7 -17 -38 -40 0
-7 -19 -20 -21 0
-7 -19 -20 -32 0
-7 -19 -20 -40 0
-7 -19 -21 -37 0
-7 -20 -21 -34 0
-7 -20 -27 -34 0
-7 -20 -27 -40 0
-7 -20 -30 -32 0
-7 -20 -30 -40 0
-7 -20 -32 -34 0
-7 -20 -34 -36 0
-7 -20 -36 -38 0
-7 -20 -38 -40 0
-7 -21 -23 -37 0
-7 -23 -25 -37 0
-7 -23 -30 -37 0
-7 -23 -36 -37 0
-7 -25 -27 -37 0
-7 -25 -37 -38 0
-7 -27 -28 -29 0
-7 -27 -28 -40 0
-7 -28 -29 -30 0
-7 -28 -30 -40 0
-7 -28 -38 -40 0
-7 -36 -37 -38 0
-8 -9 -10 -22 0
-8 -9 -10 -30 0
-8 -9 -10 -31 0
-8 -9 -10 -39 0
-8 -9 -21 -22 0
-8 -9 -21 -31 0
-8 -9 -21 -39 0
-8 -9 -22 -29 0
-8 -9 -22 -38 0
-8 -9 -29 -30 0
-8 -9 -29 -31 0
-8 -9 -29 -39 0
-8 -9 -31 -38 0
-8 -9 -38 -39 0
-8 -10 -20 -22 0
-8 -10 -20 -30 0
-8 -10 -20 -33 0
-8 -10 -20 -41 0
-8 -10 -22 -24 0
-8 -10 -22 -35 0
-8 -10 -24 -26 0
-8 -10 -24 -31 0
-8 -10 -24 -37 0
-8 -10 -26 -28 0
-8 -10 -26 -33 0
-8 -10 -26 -39 0
-8 -10 -28 -30 0
-8 -10 -28 -35 0
-8 -10 -28 -41 0
-8 -10 -30 -37 0
-8 -10 -31 -33 0
-8 -10 -31 -41 0
-8 -10 -33 -35 0
-8 -10 -35 -37 0
-8 -10 -37 -39 0
-8 -10 -39 -41 0
-8 -15 -22 -29 0
-8 -15 -22 -35 0
-8 -15 -22 -38 0
-8 -15 -28 -29 0
-8 -15 -28 -35 0
-8 -15 -28 -38 0
-8 -15 -29 -31 0
-8 -15 -31 -33 0
-8 -15 -31 -38 0
-8 -15 -33 -35 0
-8 -15 -35 -37 0
-8 -15 -37 -38 0
-8 -18 -20 -30 0
-8 -18 -20 -38 0
-8 -18 -20 -41 0
-8 -18 -28 -30 0
-8 -18 -28 -38 0
-8 -18 -28 -41 0
-8 -18 -31 -38 0
-8 -18 -31 -41 0
-8 -18 -38 -39 0
-8 -18 -39 -41 0
-8 -20 -21 -22 0
-8 -20 -21 -33 0
-8 -20 -21 -41 0
-8 -20 -22 -38 0
-8 -21 -22 -35 0
-8 -21 -28 -35 0
-8 -21 -28 -41 0
-8 -21 -31 -33 0
-8 -21 -31 -41 0
-8 -21 -33 -35 0
-8 -21 -35 -37 0
-8 -21 -37 -39 0
-8 -21 -39 -41 0
-8 -22 -24 -38 0
-8 -24 -26 -38 0
-8 -24 -31 -38 0
-8 -24 -37 -38 0
-8 -26 -28 -38 0
-8 -26 -38 -39 0
-8 -28 -29 -30 0
-8 -28 -29 -41 0
-8 -29 -31 -41 0
-8 -29 -39 -41 0
-8 -37 -38 -39 0
-9 -10 -11 -23 0
-9 -10 -11 -31 0
-9 -10 -11 -40 0
-9 -10 -22 -23 0
-9 -10 -22 -32 0
-9 -10 -22 -40 0
-9 -10 -23 -30 0
-9 -10 -23 -39 0
-9 -10 -30 -32 0
-9 -10 -30 -40 0
-9 -10 -31 -32 0
-9 -10 -32 -39 0
-9 -11 -21 -23 0
-9 -11 -21 -31 0
-9 -11 -21 -34 0
-9 -11 -21 -42 0
-9 -11 -23 -25 0
-9 -11 -23 -36 0
-9 -11 -25 -27 0
-9 -11 -25 -38 0
-9 -11 -27 -29 0
-9 -11 -27 -34 0
-9 -11 -27 -40 0
-9 -11 -29 -31 0
-9 -11 -29 -36 0
-9 -11 -29 -42 0
-9 -11 -31 -38 0
-9 -11 -34 -36 0
-9 -11 -36 -38 0
-9 -11 -38 -40 0
-9 -11 -40 -42 0
-9 -16 -23 -30 0
-9 -16 -23 -36 0
-9 -16 -23 -39 0
-9 -16 -29 -30 0
-9 -16 -29 -36 0
-9 -16 -29 -39 0
-9 -16 -30 -32 0
-9 -16 -32 -34 0
-9 -16 -32 -39 0
-9 -16 -34 -36 0
-9 -16 -36 -38 0
-9 -16 -38 -39 0
-9 -19 -21 -31 0
-9 -19 -21 -39 0
-9 -19 -21 -42 0
-9 -19 -29 -31 0
-9 -19 -29 -39 0
-9 -19 -29 -42 0
-9 -19 -31 -32 0
-9 -19 -32 -39 0
-9 -19 -32 -42 0
-9 -19 -40 -42 0
-9 -21 -22 -23 0
-9 -21 -22 -34 0
-9 -21 -22 -42 0
-9 -21 -23 -39 0
-9 -22 -23 -36 0
-9 -22 -29 -36 0
-9 -22 -29 -42 0
-9 -22 -32 -34 0
-9 -22 -32 -42 0
-9 -22 -34 -36 0
-9 -22 -36 -38 0
-9 -22 -38 -40 0
-9 -22 -40 -42 0
-9 -23 -25 -39 0
-9 -25 -27 -39 0
-9 -25 -32 -39 0
-9 -25 -38 -39 0
-9 -27 -29 -39 0
-9 -29 -30 -42 0
-9 -30 -32 -42 0
-9 -30 -40 -42 0
-10 -11 -12 -24 0
-10 -11 -12 -33 0
-10 -11 -12 -41 0
-10 -11 -23 -33 0
-10 -11 -23 -41 0
-10 -11 -24 -31 0
-10 -11 -24 -40 0
-10 -11 -31 -33 0
-10 -11 -31 -41 0
-10 -11 -33 -40 0
-10 -12 -22 -24 0
-10 -12 -22 -32 0
-10 -12 -22 -35 0
-10 -12 -24 -26 0
-10 -12 -24 -37 0
-10 -12 -26 -28 0
-10 -12 -26 -33 0
-10 -12 -26 -39 0
-10 -12 -28 -30 0
-10 -12 -28 -35 0
-10 -12 -28 -41 0
-10 -12 -30 -32 0
-10 -12 -30 -37 0
-10 -12 -32 -33 0
-10 -12 -32 -39 0
-10 -12 -33 -35 0
-10 -12 -35 -37 0
-10 -12 -37 -39 0
-10 -12 -39 -41 0
-10 -17 -24 -31 0
-10 -17 -24 -37 0
-10 -17 -24 -40 0
-10 -17 -30 -37 0
-10 -17 -30 -40 0
-10 -17 -31 -33 0
-10 -17 -33 -35 0
-10 -17 -33 -40 0
-10 -17 -35 -37 0
-10 -17 -37 -39 0
-10 -20 -22 -32 0
-10 -20 -22 -40 0
-10 -20 -30 -32 0
-10 -20 -30 -40 0
-10 -20 -32 -33 0
-10 -20 -33 -40 0
-10 -22 -23 -35 0
-10 -22 -24 -40 0
-10 -23 -30 -37 0
-10 -23 -33 -35 0
-10 -23 -35 -37 0
-10 -23 -37 -39 0
-10 -23 -39 -41 0
-10 -24 -26 -40 0
-10 -26 -28 -40 0
-10 -26 -33 -40 0
-10 -28 -30 -40 0
-10 -31 -32 -33 0
-11 -12 -13 -25 0
-11 -12 -13 -33 0
-11 -12 -13 -34 0
-11 -12 -13 -42 0
-11 -12 -24 -34 0
-11 -12 -24 -42 0
-11 -12 -25 -41 0
-11 -12 -34 -41 0
-11 -13 -23 -25 0
-11 -13 -23 -33 0
-11 -13 -23 -36 0
-11 -13 -25 -27 0
-11 -13 -25 -38 0
-11 -13 -27 -29 0
-11 -13 -27 -34 0
-11 -13 -27 -40 0
-11 -13 -29 -31 0
-11 -13 -29 -36 0
-11 -13 -29 -42 0
-11 -13 -31 -33 0
-11 -13 -31 -38 0
-11 -13 -33 -40 0
-11 -13 -34 -36 0
-11 -13 -36 -38 0
-11 -13 -38 -40 0
-11 -13 -40 -42 0
-11 -18 -25 -38 0
-11 -18 -25 -41 0
-11 -18 -31 -38 0
-11 -18 -31 -41 0
-11 -18 -34 -36 0
-11 -18 -34 -41 0
-11 -18 -36 -38 0
-11 -18 -38 -40 0
-11 -21 -23 -33 0
-11 -21 -23 -41 0
-11 -21 -31 -33 0
-11 -21 -31 -41 0
-11 -21 -34 -41 0
-11 -23 -25 -41 0
-11 -24 -31 -38 0
-11 -24 -34 -36 0
-11 -24 -36 -38 0
-11 -24 -38 -40 0
-11 -24 -40 -42 0
-11 -25 -27 -41 0
-11 -27 -29 -41 0
-11 -27 -34 -41 0
-11 -29 -31 -41 0
-12 -13 -25 -26 0
-12 -13 -25 -35 0
-12 -13 -26 -33 0
-12 -13 -26 -42 0
-12 -13 -33 -35 0
-12 -13 -34 -35 0
-12 -13 -35 -42 0
-12 -14 -24 -26 0
-12 -14 -24 -34 0
-12 -14 -24 -37 0
-12 -14 -26 -28 0
-12 -14 -26 -39 0
-12 -14 -28 -30 0
-12 -14 -28 -35 0
-12 -14 -28 -41 0
-12 -14 -30 -32 0
-12 -14 -30 -37 0
-12 -14 -32 -34 0
-12 -14 -32 -39 0
-12 -14 -34 -35 0
-12 -14 -34 -41 0
-12 -14 -35 -37 0
-12 -14 -37 -39 0
-12 -14 -39 -41 0
-12 -19 -26 -33 0
-12 -19 -26 -39 0
-12 -19 -26 -42 0
-12 -19 -32 -33 0
-12 -19 -32 -39 0
-12 -19 -32 -42 0
-12 -19 -33 -35 0
-12 -19 -35 -37 0
-12 -19 -35 -42 0
-12 -19 -37 -39 0
-12 -19 -39 -41 0
-12 -22 -24 -34 0
-12 -22 -24 -42 0
-12 -22 -32 -34 0
-12 -22 -32 -42 0
-12 -22 -34 -35 0
-12 -22 -35 -42 0
-12 -24 -26 -42 0
-12 -25 -26 -39 0
-12 -25 -32 -39 0
-12 -25 -35 -37 0
-12 -25 -37 -39 0
-12 -25 -39 -41 0
-12 -26 -28 -42 0
-12 -28 -30 -42 0
-12 -28 -35 -42 0
-12 -30 -32 -42 0
-13 -15 -25 -27 0
-13 -15 -25 -35 0
-13 -15 -25 -38 0
-13 -15 -27 -29 0
-13 -15 -27 -40 0
-13 -15 -29 -31 0
-13 -15 -29 -36 0
-13 -15 -29 -42 0
-13 -15 -31 -33 0
-13 -15 -31 -38 0
-13 -15 -33 -35 0
-13 -15 -33 -40 0
-13 -15 -35 -36 0
-13 -15 -35 -42 0
-13 -15 -36 -38 0
-13 -15 -38 -40 0
-13 -15 -40 -42 0
-13 -20 -27 -34 0
-13 -20 -27 -40 0
-13 -20 -33 -40 0
-13 -20 -34 -36 0
-13 -20 -36 -38 0
-13 -20 -38 -40 0
-13 -20 -40 -42 0
-13 -23 -25 -35 0
-13 -23 -33 -35 0
-13 -23 -35 -36 0
-13 -25 -26 -27 0
-13 -25 -26 -38 0
-13 -26 -27 -40 0
-13 -26 -33 -40 0
-13 -26 -36 -38 0
-13 -26 -38 -40 0
-13 -26 -40 -42 0
-13 -34 -35 -36 0
-14 -16 -26 -28 0
-14 -16 -26 -36 0
-14 -16 -26 -39 0
-14 -16 -28 -30 0
-14 -16 -28 -41 0
-14 -16 -30 -32 0
-14 -16 -30 -37 0
-14 -16 -32 -34 0
-14 -16 -32 -39 0
-14 -16 -34 -36 0
-14 -16 -34 -41 0
-14 -16 -36 -37 0
-14 -16 -37 -39 0
-14 -16 -39 -41 0
-14 -21 -28 -35 0
-14 -21 -28 -41 0
-14 -21 -34 -35 0
-14 -21 -34 -41 0
-14 -21 -35 -37 0
-14 -21 -37 -39 0
-14 -21 -39 -41 0
-14 -24 -26 -36 0
-14 -24 -34 -36 0
-14 -24 -36 -37 0
-14 -26 -27 -28 0
-14 -26 -27 -39 0
-14 -27 -28 -41 0
-14 -27 -34 -41 0
-14 -27 -37 -39 0
-14 -27 -39 -41 0
-14 -34 -35 -36 0
-14 -35 -36 -37 0
-15 -17 -27 -29 0
-15 -17 -27 -37 0
-15 -17 -27 -40 0
-15 -17 -29 -31 0
-15 -17 -29 -42 0
-15 -17 -31 -33 0
-15 -17 -31 -38 0
-15 -17 -33 -35 0
-15 -17 -33 -40 0
-15 -17 -35 -37 0
-15 -17 -35 -42 0
-15 -17 -37 -38 0
-15 -17 -38 -40 0
-15 -17 -40 -42 0
-15 -22 -29 -36 0
-15 -22 -29 -42 0
-15 -22 -35 -36 0
-15 -22 -35 -42 0
-15 -22 -36 -38 0
-15 -22 -38 -40 0
-15 -22 -40 -42 0
-15 -25 -27 -37 0
-15 -25 -35 -37 0
-15 -25 -37 -38 0
-15 -27 -28 -29 0
-15 -27 -28 -40 0
-15 -28 -29 -42 0
-15 -28 -35 -42 0
-15 -28 -38 -40 0
-15 -28 -40 -42 0
-15 -35 -36 -37 0
-15 -36 -37 -38 0
-16 -18 -28 -30 0
-16 -18 -28 -38 0
-16 -18 -28 -41 0
-16 -18 -30 -32 0
-16 -18 -32 -34 0
-16 -18 -32 -39 0
-16 -18 -34 -36 0
-16 -18 -34 -41 0
-16 -18 -36 -38 0
-16 -18 -38 -39 0
-16 -18 -39 -41 0
-16 -23 -30 -37 0
-16 -23 -36 -37 0
-16 -23 -37 -39 0
-16 -23 -39 -41 0
-16 -26 -28 -38 0
-16 -26 -36 -38 0
-16 -26 -38 -39 0
-16 -28 -29 -30 0
-16 -28 -29 -41 0
-16 -29 -39 -41 0
-16 -36 -37 -38 0
-16 -37 -38 -39 0
-17 -18 -19 -31 0
-17 -18 -19 -39 0
-17 -18 -19 -40 0
-17 -18 -30 -40 0
-17 -18 -31 -38 0
-17 -18 -38 -39 0
-17 -18 -38 -40 0
-17 -19 -29 -31 0
-17 -19 -29 -39 0
-17 -19 -29 -42 0
-17 -19 -31 -33 0
-17 -19 -33 -35 0
-17 -19 -33 -40 0
-17 -19 -35 -37 0
-17 -19 -35 -42 0
-17 -19 -37 -39 0
-17 -19 -40 -42 0
-17 -24 -31 -38 0
-17 -24 -37 -38 0
-17 -24 -38 -40 0
-17 -24 -40 -42 0
-17 -27 -29 -39 0
-17 -27 -37 -39 0
-17 -29 -30 -42 0
-17 -30 -40 -42 0
-17 -37 -38 -39 0
-18 -19 -20 -32 0
-18 -19 -20 -40 0
-18 -19 -20 -41 0
-18 -19 -31 -32 0
-18 -19 -31 -41 0
-18 -19 -32 -39 0
-18 -19 -39 -41 0
-18 -20 -30 -32 0
-18 -20 -30 -40 0
-18 -20 -32 -34 0
-18 -20 -34 -36 0
-18 -20 -34 -41 0
-18 -20 -36 -38 0
-18 -20 -38 -40 0
-18 -25 -32 -39 0
-18 -25 -38 -39 0
-18 -25 -39 -41 0
-18 -28 -30 -40 0
-18 -28 -38 -40 0
-19 -20 -21 -33 0
-19 -20 -21 -41 0
-19 -20 -21 -42 0
-19 -20 -32 -33 0
-19 -20 -32 -42 0
-19 -20 -33 -40 0
-19 -20 -40 -42 0
-19 -21 -31 -33 0
-19 -21 -31 -41 0
-19 -21 -33 -35 0
-19 -21 -35 -37 0
-19 -21 -35 -42 0
-19 -21 -37 -39 0
-19 -21 -39 -41 0
-19 -26 -33 -40 0
-19 -26 -40 -42 0
-19 -29 -31 -41 0
-19 -29 -39 -41 0
-19 -31 -32 -33 0
-20 -21 -22 -34 0
-20 -21 -22 -42 0
-20 -21 -34 -41 0
-20 -22 -32 -34 0
-20 -22 -32 -42 0
-20 -22 -34 -36 0
-20 -22 -36 -38 0
-20 -22 -38 -40 0
-20 -22 -40 -42 0
-20 -27 -34 -41 0
-20 -30 -32 -42 0
-20 -30 -40 -42 0
-21 -22 -23 -35 0
-21 -22 -34 -35 0
-21 -22 -35 -42 0
-21 -23 -33 -35 0
-21 -23 -35 -37 0
-21 -23 -37 -39 0
-21 -23 -39 -41 0
-21 -28 -35 -42 0
-22 -23 -35 -36 0
-22 -24 -34 -36 0
-22 -24 -36 -38 0
-22 -24 -38 -40 0
-22 -24 -40 -42 0
-22 -34 -35 -36 0
-23 -25 -35 -37 0
-23 -25 -37 -39 0
-23 -25 -39 -41 0
-23 -35 -36 -37 0
-24 -26 -36 -38 0
-24 -26 -38 -40 0
-24 -26 -40 -42 0
-24 -36 -37 -38 0
-25 -26 -27 -39 0
-25 -26 -38 -39 0
-25 -27 -37 -39 0
-25 -27 -39 -41 0
-25 -37 -38 -39 0
-26 -27 -28 -40 0
-26 -28 -38 -40 0
-26 -28 -40 -42 0
-27 -28 -29 -41 0
-27 -29 -39 -41 0
-28 -29 -30 -42 0
-28 -30 -40 -42 0
1 4 5 9 0
1 4 5 10 0
1 4 5 39 0
1 4 7 10 0
1 4 7 12 0
1 4 7 39 0
1 4 7 41 0
1 4 9 12 0
1 4 9 41 0
1 4 10 36 0
1 4 10 38 0
1 4 12 36 0
1 4 12 38 0
1 4 36 39 0
1 4 36 41 0
1 4 38 41 0
1 5 6 9 0
1 5 6 10 0
1 5 6 40 0
1 5 9 20 0
1 5 9 33 0
1 5 10 16 0
1 5 10 29 0
1 5 16 20 0
1 5 16 33 0
1 5 16 40 0
1 5 20 29 0
1 5 20 39 0
1 5 29 33 0
1 5 29 40 0
1 5 33 39 0
1 5 39 40 0
1 6 7 10 0
1 6 7 12 0
1 6 7 41 0
1 6 9 12 0
1 6 9 41 0
1 6 10 25 0
1 6 10 38 0
1 6 12 38 0
1 6 12 40 0
1 6 25 40 0
1 6 38 41 0
1 6 40 41 0
1 7 10 16 0
1 7 10 18 0
1 7 12 16 0
1 7 12 18 0
1 7 16 33 0
1 7 16 35 0
1 7 18 33 0
1 7 18 35 0
1 7 33 39 0
1 7 33 41 0
1 7 35 39 0
1 7 35 41 0
1 9 12 18 0
1 9 12 20 0
1 9 18 33 0
1 9 18 35 0
1 9 20 35 0
1 9 33 41 0
1 9 35 41 0
1 10 16 25 0
1 10 16 27 0
1 10 18 27 0
1 10 18 29 0
1 10 25 29 0
1 10 25 36 0
1 10 27 36 0
1 10 27 38 0
1 10 29 38 0
1 12 16 20 0
1 12 16 27 0
1 12 16 40 0
1 12 18 27 0
1 12 18 29 0
1 12 20 29 0
1 12 27 36 0
1 12 27 38 0
1 12 29 38 0
1 12 29 40 0
1 12 36 40 0
1 16 20 25 0
1 16 20 35 0
1 16 25 33 0
1 16 25 40 0
1 16 27 33 0
1 16 27 35 0
1 16 35 40 0
1 18 27 33 0
1 18 27 35 0
1 18 29 33 0
1 18 29 35 0
1 20 25 29 0
1 20 29 35 0
1 20 35 39 0
1 25 29 33 0
1 25 29 40 0
1 25 33 36 0
1 25 36 40 0
1 27 33 36 0
1 27 33 38 0
1 27 35 38 0
1 29 33 38 0
1 29 35 38 0
1 29 35 40 0
1 33 36 39 0
1 33 36 41 0
1 33 38 41 0
1 35 38 41 0
1 35 39 40 0
1 35 40 41 0
1 36 39 40 0
1 36 40 41 0
2 5 6 10 0
2 5 6 11 0
2 5 6 40 0
2 5 8 11 0
2 5 8 13 0
2 5 8 40 0
2 5 8 42 0
2 5 10 13 0
2 5 10 42 0
2 5 11 37 0
2 5 11 39 0
2 5 13 37 0
2 5 13 39 0
2 5 37 40 0
2 5 37 42 0
2 5 39 40 0
2 5 39 42 0
2 6 7 10 0
2 6 7 11 0
2 6 7 41 0
2 6 10 21 0
2 6 10 34 0
2 6 11 17 0
2 6 11 30 0
2 6 17 21 0
2 6 17 34 0
2 6 17 41 0
2 6 21 30 0
2 6 21 40 0
2 6 30 34 0
2 6 30 41 0
2 6 34 40 0
2 6 40 41 0
2 7 8 11 0
2 7 8 13 0
2 7 8 42 0
2 7 10 13 0
2 7 10 42 0
2 7 11 26 0
2 7 11 39 0
2 7 13 39 0
2 7 13 41 0
2 7 26 41 0
2 7 39 42 0
2 7 41 42 0
2 8 11 17 0
2 8 11 19 0
2 8 13 17 0
2 8 13 19 0
2 8 17 34 0
2 8 17 36 0
2 8 19 34 0
2 8 19 36 0
2 8 34 40 0
2 8 34 42 0
2 8 36 40 0
2 8 36 42 0
2 10 13 19 0
2 10 13 21 0
2 10 19 34 0
2 10 19 36 0
2 10 21 36 0
2 10 34 42 0
2 10 36 42 0
2 11 17 26 0
2 11 17 28 0
2 11 19 28 0
2 11 19 30 0
2 11 26 30 0
2 11 26 37 0
2 11 28 37 0
2 11 28 39 0
2 11 30 39 0
2 13 17 21 0
2 13 17 28 0
2 13 17 41 0
2 13 19 28 0
2 13 19 30 0
2 13 21 30 0
2 13 28 37 0
2 13 28 39 0
2 13 30 39 0
2 13 30 41 0
2 13 37 41 0
2 17 21 26 0
2 17 21 36 0
2 17 26 34 0
2 17 26 41 0
2 17 28 34 0
2 17 28 36 0
2 17 36 41 0
2 19 28 34 0
2 19 28 36 0
2 19 30 34 0
2 19 30 36 0
2 21 26 30 0
2 21 30 36 0
2 21 36 40 0
2 26 30 34 0
2 26 30 41 0
2 26 34 37 0
2 26 37 41 0
2 28 34 37 0
2 28 34 39 0
2 28 36 39 0
2 30 34 39 0
2 30 36 39 0
2 30 36 41 0
2 34 37 40 0
2 34 37 42 0
2 34 39 40 0
2 34 39 42 0
2 36 39 40 0
2 36 39 42 0
2 36 40 41 0
2 36 41 42 0
2 37 40 41 0
2 37 41 42 0
3 6 7 11 0
3 6 7 12 0
3 6 7 41 0
3 6 9 12 0
3 6 9 14 0
3 6 9 41 0
3 6 11 14 0
3 6 12 38 0
3 6 12 40 0
3 6 14 38 0
3 6 14 40 0
3 6 38 41 0
3 6 40 41 0
3 7 8 11 0
3 7 8 12 0
3 7 8 42 0
3 7 11 22 0
3 7 11 35 0
3 7 12 18 0
3 7 12 31 0
3 7 18 22 0
3 7 18 35 0
3 7 18 42 0
3 7 22 31 0
3 7 22 41 0
3 7 31 35 0
3 7 31 42 0
3 7 35 41 0
3 7 41 42 0
3 8 11 14 0
3 8 12 27 0
3 8 12 40 0
3 8 14 40 0
3 8 14 42 0
3 8 27 42 0
3 9 12 18 0
3 9 12 20 0
3 9 14 18 0
3 9 14 20 0
3 9 18 35 0
3 9 18 37 0
3 9 20 35 0
3 9 20 37 0
3 9 35 41 0
3 9 37 41 0
3 11 14 20 0
3 11 14 22 0
3 11 20 35 0
3 11 20 37 0
3 11 22 37 0
3 12 18 27 0
3 12 18 29 0
3 12 20 29 0
3 12 20 31 0
3 12 27 31 0
3 12 27 38 0
3 12 29 38 0
3 12 29 40 0
3 12 31 40 0
3 14 18 22 0
3 14 18 29 0
3 14 18 42 0
3 14 20 29 0
3 14 20 31 0
3 14 22 31 0
3 14 29 38 0
3 14 29 40 0
3 14 31 40 0
3 14 31 42 0
3 14 38 42 0
3 18 22 27 0
3 18 22 37 0
3 18 27 35 0
3 18 27 42 0
3 18 29 35 0
3 18 29 37 0
3 18 37 42 0
3 20 29 35 0
3 20 29 37 0
3 20 31 35 0
3 20 31 37 0
3 22 27 31 0
3 22 31 37 0
3 22 37 41 0
3 27 31 35 0
3 27 31 42 0
3 27 35 38 0
3 27 38 42 0
3 29 35 38 0
3 29 35 40 0
3 29 37 40 0
3 31 35 40 0
3 31 37 40 0
3 31 37 42 0
3 35 38 41 0
3 35 40 41 0
3 37 40 41 0
3 37 41 42 0
3 38 41 42 0
4 5 8 13 0
4 5 8 42 0
4 5 9 13 0
4 5 10 13 0
4 5 10 42 0
4 5 13 39 0
4 5 39 42 0
4 7 8 12 0
4 7 8 13 0
4 7 8 42 0
4 7 10 13 0
4 7 10 15 0
4 7 10 42 0
4 7 12 15 0
4 7 13 39 0
4 7 13 41 0
4 7 15 39 0
4 7 15 41 0
4 7 39 42 0
4 7 41 42 0
4 8 12 23 0
4 8 12 36 0
4 8 13 19 0
4 8 13 32 0
4 8 19 23 0
4 8 19 36 0
4 8 23 32 0
4 8 23 42 0
4 8 32 36 0
4 8 36 42 0
4 9 12 15 0
4 9 13 28 0
4 9 13 41 0
4 9 15 41 0
4 10 13 19 0
4 10 13 21 0
4 10 15 19 0
4 10 15 21 0
4 10 19 36 0
4 10 19 38 0
4 10 21 36 0
4 10 21 38 0
4 10 36 42 0
4 10 38 42 0
4 12 15 21 0
4 12 15 23 0
4 12 21 36 0
4 12 21 38 0
4 12 23 38 0
4 13 19 28 0
4 13 19 30 0
4 13 21 30 0
4 13 21 32 0
4 13 28 32 0
4 13 28 39 0
4 13 30 39 0
4 13 30 41 0
4 13 32 41 0
4 15 19 23 0
4 15 19 30 0
4 15 21 30 0
4 15 21 32 0
4 15 23 32 0
4 15 30 39 0
4 15 30 41 0
4 15 32 41 0
4 19 23 28 0
4 19 23 38 0
4 19 28 36 0
4 19 30 36 0
4 19 30 38 0
4 21 30 36 0
4 21 30 38 0
4 21 32 36 0
4 21 32 38 0
4 23 28 32 0
4 23 32 38 0
4 23 38 42 0
4 28 32 36 0
4 28 36 39 0
4 30 36 39 0
4 30 36 41 0
4 30 38 41 0
4 32 36 41 0
4 32 38 41 0
4 36 39 42 0
4 36 41 42 0
4 38 41 42 0
5 6 9 14 0
5 6 10 14 0
5 6 11 14 0
5 6 14 40 0
5 8 11 14 0
5 8 11 16 0
5 8 13 14 0
5 8 13 16 0
5 8 14 40 0
5 8 14 42 0
5 8 16 40 0
5 8 16 42 0
5 9 13 14 0
5 9 13 24 0
5 9 13 37 0
5 9 14 20 0
5 9 14 33 0
5 9 20 24 0
5 9 20 37 0
5 9 24 33 0
5 9 33 37 0
5 10 13 14 0
5 10 13 16 0
5 10 14 29 0
5 10 14 42 0
5 10 16 42 0
5 11 14 20 0
5 11 14 22 0
5 11 16 20 0
5 11 16 22 0
5 11 20 37 0
5 11 20 39 0
5 11 22 37 0
5 11 22 39 0
5 13 14 22 0
5 13 16 22 0
5 13 16 24 0
5 13 22 37 0
5 13 22 39 0
5 13 24 39 0
5 14 20 29 0
5 14 20 31 0
5 14 22 31 0
5 14 22 33 0
5 14 29 33 0
5 14 29 40 0
5 14 31 40 0
5 14 31 42 0
5 14 33 42 0
5 16 20 24 0
5 16 20 31 0
5 16 22 31 0
5 16 22 33 0
5 16 24 33 0
5 16 31 40 0
5 16 31 42 0
5 16 33 42 0
5 20 24 29 0
5 20 24 39 0
5 20 29 37 0
5 20 31 37 0
5 20 31 39 0
5 22 31 37 0
5 22 31 39 0
5 22 33 37 0
5 22 33 39 0
5 24 29 33 0
5 24 33 39 0
5 29 33 37 0
5 29 37 40 0
5 31 37 40 0
5 31 37 42 0
5 31 39 40 0
5 31 39 42 0
5 33 37 42 0
5 33 39 42 0
6 7 10 15 0
6 7 11 15 0
6 7 12 15 0
6 7 15 41 0
6 9 12 15 0
6 9 12 17 0
6 9 14 15 0
6 9 14 17 0
6 9 15 41 0
6 9 17 41 0
6 10 14 15 0
6 10 14 25 0
6 10 14 38 0
6 10 15 21 0
6 10 15 34 0
6 10 21 25 0
6 10 21 38 0
6 10 25 34 0
6 10 34 38 0
6 11 14 15 0
6 11 14 17 0
6 11 15 30 0
6 11 15 32 0
6 11 17 32 0
6 12 15 21 0
6 12 15 23 0
6 12 17 21 0
6 12 17 23 0
6 12 21 38 0
6 12 21 40 0
6 12 23 38 0
6 12 23 40 0
6 14 15 23 0
6 14 17 23 0
6 14 17 25 0
6 14 23 38 0
6 14 23 40 0
6 14 25 40 0
6 15 21 30 0
6 15 21 32 0
6 15 23 32 0
6 15 23 34 0
6 15 30 34 0
6 15 30 41 0
6 15 32 41 0
6 17 21 25 0
6 17 21 32 0
6 17 23 32 0
6 17 23 34 0
6 17 25 34 0
6 17 32 41 0
6 21 25 30 0
6 21 25 40 0
6 21 30 38 0
6 21 32 38 0
6 21 32 40 0
6 23 32 38 0
6 23 32 40 0
6 23 34 38 0
6 23 34 40 0
6 25 30 34 0
6 25 34 40 0
6 30 34 38 0
6 30 38 41 0
6 32 38 41 0
6 32 40 41 0
7 8 11 16 0
7 8 12 16 0
7 8 13 16 0
7 8 16 42 0
7 10 13 16 0
7 10 13 18 0
7 10 15 16 0
7 10 15 18 0
7 10 16 42 0
7 10 18 42 0
7 11 15 16 0
7 11 15 26 0
7 11 15 39 0
7 11 16 22 0
7 11 16 35 0
7 11 22 26 0
7 11 22 39 0
7 11 26 35 0
7 11 35 39 0
7 12 15 16 0
7 12 15 18 0
7 12 16 31 0
7 13 16 22 0
7 13 16 24 0
7 13 18 22 0
7 13 18 24 0
7 13 22 39 0
7 13 22 41 0
7 13 24 39 0
7 13 24 41 0
7 15 16 24 0
7 15 18 24 0
7 15 18 26 0
7 15 24 39 0
7 15 24 41 0
7 15 26 41 0
7 16 22 31 0
7 16 22 33 0
7 16 24 33 0
7 16 24 35 0
7 16 31 35 0
7 16 31 42 0
7 16 33 42 0
7 18 22 26 0
7 18 22 33 0
7 18 24 33 0
7 18 24 35 0
7 18 26 35 0
7 18 33 42 0
7 22 26 31 0
7 22 26 41 0
7 22 31 39 0
7 22 33 39 0
7 22 33 41 0
7 24 33 39 0
7 24 33 41 0
7 24 35 39 0
7 24 35 41 0
7 26 31 35 0
7 26 35 41 0
7 31 35 39 0
7 31 39 42 0
7 33 39 42 0
7 33 41 42 0
8 11 14 17 0
8 11 14 19 0
8 11 16 17 0
8 11 16 19 0
8 11 17 32 0
8 12 16 17 0
8 12 16 27 0
8 12 16 40 0
8 12 17 23 0
8 12 17 36 0
8 12 23 27 0
8 12 23 40 0
8 12 27 36 0
8 12 36 40 0
8 13 14 17 0
8 13 14 19 0
8 13 16 17 0
8 13 16 19 0
8 13 17 32 0
8 14 17 23 0
8 14 17 25 0
8 14 19 23 0
8 14 19 25 0
8 14 23 40 0
8 14 23 42 0
8 14 25 40 0
8 14 25 42 0
8 16 17 25 0
8 16 19 25 0
8 16 19 27 0
8 16 25 40 0
8 16 25 42 0
8 16 27 42 0
8 17 23 32 0
8 17 23 34 0
8 17 25 34 0
8 17 25 36 0
8 17 32 36 0
8 19 23 27 0
8 19 23 34 0
8 19 25 34 0
8 19 25 36 0
8 19 27 36 0
8 23 27 32 0
8 23 27 42 0
8 23 32 40 0
8 23 34 40 0
8 23 34 42 0
8 25 34 40 0
8 25 34 42 0
8 25 36 40 0
8 25 36 42 0
8 27 32 36 0
8 27 36 42 0
8 32 36 40 0
9 12 15 18 0
9 12 15 20 0
9 12 17 20 0
9 13 14 17 0
9 13 14 18 0
9 13 17 28 0
9 13 17 41 0
9 13 18 24 0
9 13 18 37 0
9 13 24 28 0
9 13 24 41 0
9 13 28 37 0
9 13 37 41 0
9 14 15 18 0
9 14 15 20 0
9 14 17 20 0
9 14 18 33 0
9 15 18 24 0
9 15 18 26 0
9 15 20 24 0
9 15 20 26 0
9 15 24 41 0
9 15 26 41 0
9 17 20 26 0
9 17 20 28 0
9 17 26 41 0
9 18 24 33 0
9 18 24 35 0
9 18 26 35 0
9 18 26 37 0
9 18 33 37 0
9 20 24 28 0
9 20 24 35 0
9 20 26 35 0
9 20 26 37 0
9 20 28 37 0
9 24 28 33 0
9 24 33 41 0
9 24 35 41 0
9 26 35 41 0
9 26 37 41 0
9 28 33 37 0
9 33 37 41 0
10 13 14 18 0
10 13 14 19 0
10 13 16 19 0
10 13 16 21 0
10 13 18 21 0
10 14 15 18 0
10 14 15 19 0
10 14 18 29 0
10 14 18 42 0
10 14 19 25 0
10 14 19 38 0
10 14 25 29 0
10 14 25 42 0
10 14 29 38 0
10 14 38 42 0
10 15 16 19 0
10 15 16 21 0
10 15 18 21 0
10 15 19 34 0
10 16 19 25 0
10 16 19 27 0
10 16 21 25 0
10 16 21 27 0
10 16 25 42 0
10 16 27 42 0
10 18 21 27 0
10 18 21 29 0
10 18 27 42 0
10 19 25 34 0
10 19 25 36 0
10 19 27 36 0
10 19 27 38 0
10 19 34 38 0
10 21 25 29 0
10 21 25 36 0
10 21 27 36 0
10 21 27 38 0
10 21 29 38 0
10 25 29 34 0
10 25 34 42 0
10 25 36 42 0
10 27 36 42 0
10 27 38 42 0
10 29 34 38 0
10 34 38 42 0
11 14 15 19 0
11 14 15 20 0
11 14 17 20 0
11 14 17 22 0
11 14 19 22 0
11 15 16 19 0
11 15 16 20 0
11 15 19 30 0
11 15 20 26 0
11 15 20 39 0
11 15 26 30 0
11 15 26 32 0
11 15 30 39 0
11 16 17 20 0
11 16 17 22 0
11 16 19 22 0
11 16 20 35 0
11 17 20 26 0
11 17 20 28 0
11 17 22 26 0
11 17 22 28 0
11 17 26 32 0
11 17 28 32 0
11 19 22 28 0
11 19 22 30 0
11 20 26 35 0
11 20 26 37 0
11 20 28 37 0
11 20 28 39 0
11 20 35 39 0
11 22 26 30 0
11 22 26 37 0
11 22 28 37 0
11 22 28 39 0
11 22 30 39 0
11 26 30 35 0
11 26 32 35 0
11 26 32 37 0
11 28 32 37 0
11 30 35 39 0
12 15 16 20 0
12 15 16 21 0
12 15 18 21 0
12 15 18 23 0
12 15 20 23 0
12 16 17 20 0
12 16 17 21 0
12 16 20 31 0
12 16 21 27 0
12 16 21 40 0
12 16 27 31 0
12 16 31 40 0
12 17 20 23 0
12 17 21 36 0
12 18 21 27 0
12 18 21 29 0
12 18 23 27 0
12 18 23 29 0
12 20 23 29 0
12 20 23 31 0
12 21 27 36 0
12 21 27 38 0
12 21 29 38 0
12 21 29 40 0
12 21 36 40 0
12 23 27 31 0
12 23 27 38 0
12 23 29 38 0
12 23 29 40 0
12 23 31 40 0
12 27 31 36 0
12 31 36 40 0
13 14 17 22 0
13 14 18 22 0
13 14 19 22 0
13 16 17 21 0
13 16 17 22 0
13 16 19 22 0
13 16 19 24 0
13 16 21 24 0
13 17 21 32 0
13 17 22 28 0
13 17 22 41 0
13 17 28 32 0
13 17 32 41 0
13 18 21 24 0
13 18 22 37 0
13 19 22 28 0
13 19 22 30 0
13 19 24 28 0
13 19 24 30 0
13 21 24 30 0
13 21 24 32 0
13 22 28 37 0
13 22 28 39 0
13 22 30 39 0
13 22 30 41 0
13 22 37 41 0
13 24 28 32 0
13 24 28 39 0
13 24 30 39 0
13 24 30 41 0
13 24 32 41 0
13 28 32 37 0
13 32 37 41 0
14 15 18 23 0
14 15 19 23 0
14 15 20 23 0
14 17 20 23 0
14 17 20 25 0
14 17 22 25 0
14 18 22 33 0
14 18 23 29 0
14 18 23 42 0
14 18 29 33 0
14 18 33 42 0
14 19 22 25 0
14 19 23 38 0
14 20 23 29 0
14 20 23 31 0
14 20 25 29 0
14 20 25 31 0
14 22 25 31 0
14 22 25 33 0
14 23 29 38 0
14 23 29 40 0
14 23 31 40 0
14 23 31 42 0
14 23 38 42 0
14 25 29 33 0
14 25 29 40 0
14 25 31 40 0
14 25 31 42 0
14 25 33 42 0
14 29 33 38 0
14 33 38 42 0
15 16 19 24 0
15 16 20 24 0
15 16 21 24 0
15 18 21 24 0
15 18 21 26 0
15 18 23 24 0
15 18 23 26 0
15 19 23 24 0
15 19 23 34 0
15 19 24 30 0
15 19 30 34 0
15 20 23 24 0
15 20 23 26 0
15 20 24 39 0
15 21 24 30 0
15 21 24 32 0
15 21 26 30 0
15 21 26 32 0
15 23 24 32 0
15 23 26 32 0
15 23 26 34 0
15 24 30 39 0
15 24 30 41 0
15 24 32 41 0
15 26 30 34 0
15 26 30 41 0
15 26 32 41 0
15 30 34 39 0
16 17 20 25 0
16 17 21 25 0
16 17 22 25 0
16 19 22 25 0
16 19 22 27 0
16 19 24 25 0
16 19 24 27 0
16 20 24 25 0
16 20 24 35 0
16 20 25 31 0
16 20 31 35 0
16 21 24 25 0
16 21 24 27 0
16 21 25 40 0
16 22 25 31 0
16 22 25 33 0
16 22 27 31 0
16 22 27 33 0
16 24 25 33 0
16 24 27 33 0
16 24 27 35 0
16 25 31 40 0
16 25 31 42 0
16 25 33 42 0
16 27 31 35 0
16 27 31 42 0
16 27 33 42 0
16 31 35 40 0
17 20 23 26 0
17 20 23 28 0
17 20 25 28 0
17 21 25 36 0
17 21 26 32 0
17 21 32 36 0
17 22 25 28 0
17 22 26 41 0
17 23 26 32 0
17 23 26 34 0
17 23 28 32 0
17 23 28 34 0
17 25 28 34 0
17 25 28 36 0
17 26 32 41 0
17 28 32 36 0
17 32 36 41 0
18 21 24 27 0
18 21 24 29 0
18 21 26 29 0
18 22 26 37 0
18 22 27 33 0
18 22 33 37 0
18 23 24 27 0
18 23 24 29 0
18 23 26 29 0
18 23 27 42 0
18 24 27 33 0
18 24 27 35 0
18 24 29 33 0
18 24 29 35 0
18 26 29 35 0
18 26 29 37 0
18 27 33 42 0
18 29 33 37 0
18 33 37 42 0
19 22 25 28 0
19 22 25 30 0
19 22 27 30 0
19 23 24 27 0
19 23 24 28 0
19 23 27 38 0
19 23 28 34 0
19 23 34 38 0
19 24 25 28 0
19 24 25 30 0
19 24 27 30 0
19 25 28 34 0
19 25 28 36 0
19 25 30 34 0
19 25 30 36 0
19 27 30 36 0
19 27 30 38 0
19 30 34 38 0
20 23 24 28 0
20 23 24 29 0
20 23 26 29 0
20 23 26 31 0
20 23 28 31 0
20 24 25 28 0
20 24 25 29 0
20 24 28 39 0
20 24 29 35 0
20 24 35 39 0
20 25 28 31 0
20 26 29 35 0
20 26 29 37 0
20 26 31 35 0
20 26 31 37 0
20 28 31 37 0
20 28 31 39 0
20 31 35 39 0
21 24 25 29 0
21 24 25 30 0
21 24 27 30 0
21 24 27 32 0
21 24 29 32 0
21 25 29 40 0
21 25 30 36 0
21 25 36 40 0
21 26 29 32 0
21 27 30 36 0
21 27 30 38 0
21 27 32 36 0
21 27 32 38 0
21 29 32 38 0
21 29 32 40 0
21 32 36 40 0
22 25 28 31 0
22 25 28 33 0
22 25 30 31 0
22 25 30 33 0
22 26 30 31 0
22 26 30 41 0
22 26 31 37 0
22 26 37 41 0
22 27 30 31 0
22 27 30 33 0
22 28 31 37 0
22 28 31 39 0
22 28 33 37 0
22 28 33 39 0
22 30 31 39 0
22 30 33 39 0
22 30 33 41 0
22 33 37 41 0
23 24 27 32 0
23 24 28 32 0
23 24 29 32 0
23 26 29 32 0
23 26 29 34 0
23 26 31 34 0
23 27 31 42 0
23 27 32 38 0
23 27 38 42 0
23 28 31 34 0
23 29 32 38 0
23 29 32 40 0
23 29 34 38 0
23 29 34 40 0
23 31 34 40 0
23 31 34 42 0
23 34 38 42 0
24 25 28 33 0
24 25 29 33 0
24 25 30 33 0
24 27 30 33 0
24 27 30 35 0
24 27 32 35 0
24 28 33 39 0
24 29 32 35 0
24 30 33 39 0
24 30 33 41 0
24 30 35 39 0
24 30 35 41 0
24 32 35 41 0
25 28 31 34 0
25 28 31 36 0
25 28 33 34 0
25 28 33 36 0
25 29 33 34 0
25 29 34 40 0
25 30 31 34 0
25 30 31 36 0
25 30 33 34 0
25 30 33 36 0
25 31 34 40 0
25 31 34 42 0
25 31 36 40 0
25 31 36 42 0
25 33 34 42 0
25 33 36 42 0
26 29 32 35 0
26 29 32 37 0
26 29 34 37 0
26 30 31 34 0
26 30 31 35 0
26 30 35 41 0
26 31 34 37 0
26 32 35 41 0
26 32 37 41 0
27 30 31 35 0
27 30 31 36 0
27 30 33 36 0
27 30 33 38 0
27 30 35 38 0
27 31 36 42 0
27 32 35 38 0
27 33 36 42 0
27 33 38 42 0
28 31 34 37 0
28 31 34 39 0
28 31 36 39 0
28 33 34 37 0
28 33 34 39 0
28 33 36 39 0
29 32 35 38 0
29 32 35 40 0
29 32 37 40 0
29 33 34 37 0
29 33 34 38 0
29 34 37 40 0
30 31 34 39 0
30 31 35 39 0
30 31 36 39 0
30 33 34 38 0
30 33 34 39 0
30 33 36 39 0
30 33 36 41 0
30 33 38 41 0
30 35 38 41 0
31 34 37 40 0
31 34 37 42 0
31 34 39 40 0
31 34 39 42 0
31 35 39 40 0
31 36 39 40 0
31 36 39 42 0
32 35 38 41 0
32 35 40 41 0
32 36 40 41 0
32 37 40 41 0
33 34 37 42 0
33 34 38 42 0
33 34 39 42 0
33 36 39 42 0
33 36 41 42 0
33 37 41 42 0
33 38 41 42 0
